1111100 AB
301 331 361 391 405 420 440 460 480 500 519 539 559 579 599 619 639 659 679 699 719 739 759 779 809 839 869 899 929 959 989 1009 1029 1049 1069 1089 1109 1129 1149 1169 1189 1209 1229 1249 1284 1319 1354 1394 1434
1111100 BA
331 361 391 421 441 461 481 501 521 541 561 582 602 622 642 662 682 702 722 742 762 782 802 822 852 882 913 945 975 1005 1035 1055 1075 1095 1115 1135 1153 1171 1190 1210 1230 1250 1267 1281 1314 1349 1384 1424 24
0000011 AB
301 331 361 386 411 436 461 486 511 536 561 586 611 636 656 676 696 716 736 756 776 796 816 836 856 876 896 916 941 966 991 1016 1041 1066 1096 1126 1156 1186 1216 1246 1276 1306 1348 1391 1434
0000011 BA
331 361 391 416 446 472 497 522 547 572 597 622 647 672 692 712 732 752 772 792 812 832 852 872 892 915 937 958 983 1008 1033 1058 1083 1108 1138 1168 1198 1228 1258 1279 1306 1336 1378 1421 24
